c co [[[[[[[[0], [1]], [2]], [[3], [4]]], [[[5], [6]], [[7], [[8], [9]]]]], [[[10], [11]], [12]]], [[[[[13], [14]], [15]], [[[[[16], [17]], [18]], [[19], [20]]], [[[[21], [22]], [23]], [[24], [25]]]]], [[[26], [[27], [28]]], [[[29], [30]], [31]]]]], [[[[[[[32], [[33], [34]]], [[35], [[36], [37]]]], [[[38], [39]], [40]]], [[[[41], [42]], [[43], [44]]], [[[45], [[46], [47]]], [[48], [49]]]]], [[[[50], [51]], [[52], [53]]], [[[54], [55]], [56]]]], [[[[[[[57], [58]], [[59], [60]]], [[61], [62]]], [[[[63], [64]], [65]], [[66], [[67], [68]]]]], [[[[[[69], [70]], [71]], [[[72], [73]], [74]]], [[[75], [76]], [[[77], [78]], [79]]]], [[[[80], [81]], [[82], [83]]], [[[84], [85]], [[86], [87]]]]]], [[[[[[88], [89]], [90]], [[91], [92]]], [[[[[93], [94]], [95]], [[[96], [97]], [[98], [99]]]], [[[100], [[[101], [102]], [[103], [104]]]], [[105], [106]]]]], [[[[[[107], [108]], [109]], [[110], [111]]], [[[112], [113]], [114]]], [[115], [[[116], [117]], [[118], [119]]]]]]]]]
c vo [[[[[42], [33]], [[[[25], [45]], [[29], [24]]], [23]]], [[[31], [19]], [[[16], [20]], [[15], [30]]]]], [[[[11], [[[40], [14]], [[34], [41]]]], [[[35], [27]], [[26], [28]]]], [[[[[39], [13]], [10]], [[37], [[6], [5]]]], [[[[[[8], [[17], [22]]], [[[18], [2]], [[1], [3]]]], [[[38], [32]], [7]]], [[[12], [4]], [21]]], [[[43], [9]], [[44], [36]]]]]]]
c 42 x42
c 33 x33
c 25 x25
c 45 x45
c 29 x29
c 24 x24
c 23 x23
c 31 x31
c 19 x19
c 16 x16
c 20 x20
c 15 x15
c 30 x30
c 11 x11
c 40 x40
c 14 x14
c 34 x34
c 41 x41
c 35 x35
c 27 x27
c 26 x26
c 28 x28
c 39 x39
c 13 x13
c 10 x10
c 37 x37
c 6 x6
c 5 x5
c 8 x8
c 17 x17
c 22 x22
c 18 x18
c 2 x2
c 1 x1
c 3 x3
c 38 x38
c 32 x32
c 7 x7
c 12 x12
c 4 x4
c 21 x21
c 43 x43
c 9 x9
c 44 x44
c 36 x36
p cnf 45 120
24 33 0
-24 -33 -29 0
24 29 0
45 29 0
-45 -29 0
-42 -33 0
42 33 0
25 42 0
-42 -45 -25 0
25 45 0
23 24 0
-23 -24 -25 0
23 25 0
30 29 0
-29 -31 -30 0
29 31 0
30 15 0
-15 -20 -30 0
30 20 0
20 16 0
-20 -16 0
31 16 0
-31 -19 -16 0
19 31 0
19 15 0
-15 -19 0
16 32 0
-15 -32 -16 0
32 15 0
-15 14 0
-14 16 15 0
14 -16 0
2 22 0
-21 -2 -22 0
21 22 0
35 21 0
-35 -21 -34 0
35 34 0
41 2 0
-41 -2 -34 0
41 34 0
11 17 0
11 41 0
-17 -11 -40 -41 0
11 40 0
40 21 0
-21 -14 -40 0
40 14 0
34 14 0
-34 -14 0
8 17 0
8 14 0
-17 -14 -8 -22 0
8 22 0
33 17 0
-17 -33 -22 0
33 22 0
35 27 0
-18 -17 -27 -35 0
27 18 0
27 17 0
3 17 0
-17 -3 0
26 27 0
-26 -28 -27 0
26 28 0
28 3 0
-28 -3 -38 0
28 38 0
39 32 0
-17 -39 -32 0
39 17 0
38 32 0
-38 -22 -32 0
38 22 0
22 37 0
-22 -37 0
13 37 0
-13 -37 -39 0
13 39 0
13 10 0
10 11 0
-10 -11 -13 -12 0
10 12 0
12 32 0
12 18 0
-18 -4 -12 -32 0
12 4 0
44 36 0
-21 -36 -44 0
44 21 0
4 21 0
-4 -21 0
43 4 0
-4 -43 -32 0
43 32 0
-1 4 0
3 -1 0
-4 1 -2 -3 0
2 -1 0
44 9 0
9 3 0
-18 -9 -3 -44 -43 0
9 18 0
43 9 0
2 18 0
-18 -2 0
7 1 0
-1 -7 -32 0
7 32 0
32 36 0
-36 -32 0
6 36 0
-37 -36 -6 0
37 6 0
5 7 0
5 6 0
-7 -9 -6 -5 -8 0
5 8 0
5 9 0
